Test: battleship-07-13-sat.cnf
Options: -no-inverting-opt -activity-look-freq=1
WARNING: for repeatability, setting FPU to use double precision
============================[ Problem Statistics ]=============================
|                                                                             |
|  Number of symmetries:           12                                         |
|  Number of invertingSyms:         0                                         |
|  Number of variables:            91                                         |
|  Number of clauses:             322                                         |
|  Parse time:                   0.00 s                                       |
|                                                                             |
============================[ Search Statistics ]==============================
| Conflicts |          ORIGINAL         |          LEARNT          | Progress |
|           |    Vars  Clauses Literals |    Limit  Clauses Lit/Cl |          |
===============================================================================
|       100 |      91      322     1183 |      118      100     39 |  0.012 % |
===============================================================================
restarts              : 2
conflicts             : 133            (33250 /sec)
symconflicts          : 1              (250 /sec)
decisions             : 280            (0.00 % random) (70000 /sec)
propagations          : 6499           (1624750 /sec)
sympropagations       : 2              (500 /sec)
conflict literals     : 4974           (0.24 % deleted)
literals     : 4974           (0.24 % deleted)

HEURISTIC USAGES
random                : 0           
activity w/ lookahead : 279         
activity no lookahead : 0           
original sp           : 0           
sym count             : 0           

Memory used           : 5.00 MB
CPU time              : 0.004 s

SATISFIABLE
